/*********************************************
 * OPL 12.7.1.0 Data
 * Author: Chung
 * Creation Date: Mar 13, 2018 at 9:38:13 PM
 *********************************************/
//RAW = ["oat" "maize" "molasses"];

P = [
[13.6 7.1 7],
[4.1 2.4 3.7],
[5 0.3 25],
];

REQ = [9.5 2.0 6.0];
AVAIL = [11900 23500 750];
COST = [0.13 0.17 0.12];
PCOST = [0.25 0.05 0.42 0.17];
DEM = [9000 12000];